c CNF file generated from BLIF2CNF script.
c Original BLIF file was blif/newapla.blif
p cnf 42 197
1 -5 0
- -5 0
5 -1   0
-5 4 0
1 -6 0
- -6 0
6 -1   0
-6 4 0
1 -7 0
 -7 0
7 -1 -  0
-7 4 0
1 -8 0
-2 -8 0
-3 -8 0
-4 -8 0
- -8 0
 -8 0
- -8 0
8 -1 2 3 4  -   0
-8 4 0
-4 5 6 7 8  0
1 -9 0
- -9 0
9 -1   0
-9 1 0
1 -10 0
 -10 0
10 -1 -  0
-10 1 0
1 -11 0
 -11 0
11 -1 -  0
-11 1 0
1 -12 0
- -12 0
12 -1   0
-12 1 0
-1 0
-1 -14 0
14 1  0
-14 13 0
1 -15 0
-13 -15 0
- -15 0
- -15 0
- -15 0
 -15 0
- -15 0
15 -1 13    -   0
-15 13 0
-13 14 15  0
-1 -16 0
16 1  0
-16 1 0
-1 0
1 -19 0
3 -19 0
 -19 0
 -19 0
- -19 0
- -19 0
19 -1 -3 - -    0
-19 18 0
1 -20 0
18 -20 0
 -20 0
 -20 0
- -20 0
- -20 0
20 -1 -18 - -    0
-20 18 0
1 -21 0
- -21 0
 -21 0
 -21 0
- -21 0
- -21 0
21 -1  - -    0
-21 18 0
1 -22 0
2 -22 0
-3 -22 0
17 -22 0
-18 -22 0
 -22 0
- -22 0
22 -1 -2 3 -17 18 -   0
-22 18 0
1 -23 0
-2 -23 0
-3 -23 0
17 -23 0
-18 -23 0
 -23 0
- -23 0
23 -1 2 3 -17 18 -   0
-23 18 0
1 -24 0
2 -24 0
-3 -24 0
-17 -24 0
-18 -24 0
 -24 0
- -24 0
24 -1 -2 3 17 18 -   0
-24 18 0
-18 19 20 21 22 23 24  0
 -28 0
28 -  0
-28 27 0
1 -29 0
2 -29 0
27 -29 0
 -29 0
- -29 0
29 -1 -2 -27 -   0
-29 27 0
1 -30 0
25 -30 0
27 -30 0
 -30 0
- -30 0
30 -1 -25 -27 -   0
-30 27 0
1 -31 0
3 -31 0
27 -31 0
 -31 0
- -31 0
- -31 0
31 -1 -3 -27 -    0
-31 27 0
1 -32 0
26 -32 0
27 -32 0
 -32 0
- -32 0
- -32 0
32 -1 -26 -27 -    0
-32 27 0
1 -33 0
-17 -33 0
27 -33 0
 -33 0
- -33 0
- -33 0
33 -1 17 -27 -    0
-33 27 0
1 -34 0
 -34 0
- -34 0
- -34 0
 -34 0
- -34 0
34 -1 -   -   0
-34 27 0
-27 28 29 30 31 32 33 34  0
1 -36 0
35 -36 0
- -36 0
 -36 0
- -36 0
 -36 0
- -36 0
36 -1 -35  -  -   0
-36 35 0
-35 36  0
1 -38 0
-37 -38 0
- -38 0
 -38 0
- -38 0
 -38 0
- -38 0
38 -1 37  -  -   0
-38 37 0
-37 38  0
1 -40 0
39 -40 0
- -40 0
- -40 0
 -40 0
- -40 0
40 -1 -39   -   0
-40 39 0
-39 40  0
1 -42 0
41 -42 0
- -42 0
- -42 0
- -42 0
 -42 0
- -42 0
42 -1 -41    -   0
-42 41 0
-41 42  0
